# Solution for model obj
# Objective value = 5.5829932101921190e+02
ch1_enwk_1_m_perc 1.5106771581280759e-01
ch1_enwk_1_y 1
ch1_enwk_2_m_perc 0
ch1_enwk_2_y 0
ch1_enwk_3_m_perc 0
ch1_enwk_3_y 0
ch1_enwk_4_m_perc 0
ch1_enwk_4_y 0
ch2_enwk_1_m_perc 0
ch2_enwk_1_y 0
ch2_enwk_2_m_perc 0
ch2_enwk_2_y 0
ch2_enwk_3_m_perc 0
ch2_enwk_3_y 0
ch2_enwk_4_m_perc 8.4893228418697175e-01
ch2_enwk_4_y 1
ch3_enwk_1_m_perc 0
ch3_enwk_1_y 0
ch3_enwk_2_m_perc 0
ch3_enwk_2_y 0
ch3_enwk_3_m_perc -1.0473555219753860e-12
ch3_enwk_3_y 0
ch3_enwk_4_m_perc 1.3741264067007040e-12
ch3_enwk_4_y 0
ch1_ep_1_m_flow 0
ch1_ep_1_y 0
ch1_ep_1_delp 0
ch1_ep_2_m_flow 0
ch1_ep_2_y 0
ch1_ep_2_delp 0
ch1_ep_3_m_flow 1.4241153569673372e+02
ch1_ep_3_y 1
ch1_ep_3_delp 1.1286934703624816e+01
ch1_ep_4_m_flow 0
ch1_ep_4_y 0
ch1_ep_4_delp 0
ch2_ep_1_m_flow 0
ch2_ep_1_y 0
ch2_ep_1_delp 0
ch2_ep_2_m_flow 0
ch2_ep_2_y 0
ch2_ep_2_delp 0
ch2_ep_3_m_flow 0
ch2_ep_3_y 0
ch2_ep_3_delp 0
ch2_ep_4_m_flow 8.0028846430305828e+02
ch2_ep_4_y 1
ch2_ep_4_delp 1.2787229976902262e+01
ch3_ep_1_m_flow 0
ch3_ep_1_y 1
ch3_ep_1_delp 0
ch3_ep_2_m_flow 0
ch3_ep_2_y 0
ch3_ep_2_delp 0
ch3_ep_3_m_flow 0
ch3_ep_3_y 0
ch3_ep_3_delp 0
ch3_ep_4_m_flow 2.0804691303055733e-10
ch3_ep_4_y 0
ch3_ep_4_delp 0
sp1_temp_t_inout 6.1145989882014438e-02
sp1_temp_y 1
ice_nwk_1_m_perc 2.4128513534716856e-01
ice_nwk_1_y 1
ice_nwk_2_m_perc 0
ice_nwk_2_y 0
ice_nwk_3_m_perc 0
ice_nwk_3_y 0
ice_nwk_4_m_perc 0
ice_nwk_4_y 0
gv2_nwk_1_m_perc 3.2690211232060305e-02
gv2_nwk_1_y 1
gv2_nwk_2_m_perc 0
gv2_nwk_2_y 0
gv2_nwk_3_m_perc 0
gv2_nwk_3_y 0
gv2_nwk_4_m_perc 0
gv2_nwk_4_y 0
hsb_nwk_1_m_perc 2.0859492411510824e-01
hsb_nwk_1_y 1
hsb_nwk_2_m_perc 0
hsb_nwk_2_y 0
hsb_nwk_3_m_perc 0
hsb_nwk_3_y 0
hsb_nwk_4_m_perc 0
hsb_nwk_4_y 0
tro_nwk_1_m_perc 0
tro_nwk_1_y 0
tro_nwk_2_m_perc 4.1718984823021654e-01
tro_nwk_2_y 1
tro_nwk_3_m_perc 0
tro_nwk_3_y 0
tro_nwk_4_m_perc 0
tro_nwk_4_y 0
pfa_nwk_1_m_perc 2.0859492411510827e-01
pfa_nwk_1_y 1
pfa_nwk_2_m_perc 0
pfa_nwk_2_y 0
pfa_nwk_3_m_perc 0
pfa_nwk_3_y 0
pfa_nwk_4_m_perc 0
pfa_nwk_4_y 0
ser_nwk_1_m_perc 2.0859492411510827e-01
ser_nwk_1_y 1
ser_nwk_2_m_perc 0
ser_nwk_2_y 0
ser_nwk_3_m_perc 0
ser_nwk_3_y 0
ser_nwk_4_m_perc 0
ser_nwk_4_y 0
para_nwk_con_delp 7.1804932540007727e+01
para_nwk_con_y 1
dist_np_combi_0_0_m_flow 0
dist_np_combi_0_0_y 0
dist_np_combi_0_0_delp 0
dist_np_combi_0_1_m_flow 0
dist_np_combi_0_1_y 0
dist_np_combi_0_1_delp 0
dist_np_combi_0_2_m_flow 0
dist_np_combi_0_2_y 0
dist_np_combi_0_2_delp 0
dist_np_combi_0_3_m_flow 0
dist_np_combi_0_3_y 0
dist_np_combi_0_3_delp 0
dist_np_combi_1_0_m_flow 0
dist_np_combi_1_0_y 0
dist_np_combi_1_0_delp 0
dist_np_combi_1_1_m_flow 0
dist_np_combi_1_1_y 0
dist_np_combi_1_1_delp 0
dist_np_combi_1_2_m_flow 0
dist_np_combi_1_2_y 0
dist_np_combi_1_2_delp 0
dist_np_combi_1_3_m_flow 0
dist_np_combi_1_3_y 0
dist_np_combi_1_3_delp 0
dist_np_combi_2_0_m_flow 0
dist_np_combi_2_0_y 0
dist_np_combi_2_0_delp 0
dist_np_combi_2_1_m_flow 0
dist_np_combi_2_1_y 0
dist_np_combi_2_1_delp 0
dist_np_combi_2_2_m_flow 0
dist_np_combi_2_2_y 0
dist_np_combi_2_2_delp 0
dist_np_combi_2_3_m_flow 0
dist_np_combi_2_3_y 0
dist_np_combi_2_3_delp 0
dist_np_combi_3_0_m_flow 0
dist_np_combi_3_0_y 0
dist_np_combi_3_0_delp 0
dist_np_combi_3_1_m_flow 0
dist_np_combi_3_1_y 0
dist_np_combi_3_1_delp 0
dist_np_combi_3_2_m_flow 0
dist_np_combi_3_2_y 0
dist_np_combi_3_2_delp 0
dist_np_combi_3_3_m_flow 0
dist_np_combi_3_3_y 0
dist_np_combi_3_3_delp 0
dist_np_combi_4_0_m_flow 0
dist_np_combi_4_0_y 0
dist_np_combi_4_0_delp 0
dist_np_combi_4_1_m_flow 6.2074436701840091e+02
dist_np_combi_4_1_y 1
dist_np_combi_4_1_delp 7.1804932540007727e+01
dist_np_combi_4_2_m_flow 0
dist_np_combi_4_2_y 0
dist_np_combi_4_2_delp 0
dist_np_combi_4_3_m_flow 0
dist_np_combi_4_3_y 0
dist_np_combi_4_3_delp 0
dist_np_combi_5_0_m_flow 0
dist_np_combi_5_0_y 0
dist_np_combi_5_0_delp 0
dist_np_combi_5_1_m_flow 0
dist_np_combi_5_1_y 0
dist_np_combi_5_1_delp 0
dist_np_combi_5_2_m_flow 0
dist_np_combi_5_2_y 0
dist_np_combi_5_2_delp 0
dist_np_combi_5_3_m_flow 0
dist_np_combi_5_3_y 0
dist_np_combi_5_3_delp 0
dist_np_combi_6_0_m_flow 0
dist_np_combi_6_0_y 0
dist_np_combi_6_0_delp 0
dist_np_combi_6_1_m_flow 0
dist_np_combi_6_1_y 0
dist_np_combi_6_1_delp 0
dist_np_combi_6_2_m_flow 0
dist_np_combi_6_2_y 0
dist_np_combi_6_2_delp 0
dist_np_combi_6_3_m_flow 0
dist_np_combi_6_3_y 0
dist_np_combi_6_3_delp 0
sp2_temp_t_inout 7.0666666666666822e-02
sp2_temp_y 1
ch1_1_evap_u0 0
ch1_1_evap_u0_y 0
ch1_1_evap_v0 0
ch1_1_evap_v0_y 0
ch1_1_evap_u1 3.0213543162561518e-01
ch1_1_evap_u1_y 1
ch1_1_evap_v1 0
ch1_1_evap_v1_y 0
ch1_1_evap_u2 0
ch1_1_evap_u2_y 0
ch1_1_evap_v2 0
ch1_1_evap_v2_y 0
ch1_1_evap_u3 0
ch1_1_evap_u3_y 0
ch1_1_evap_v3 0
ch1_1_evap_v3_y 0
ch1_1_evap_u4 0
ch1_1_evap_u4_y 0
ch1_1_evap_v4 0
ch1_1_evap_v4_y 0
ch1_1_evap_u5 0
ch1_1_evap_u5_y 0
ch1_1_evap_v5 0
ch1_1_evap_v5_y 0
ch1_1_evap_u6 0
ch1_1_evap_u6_y 0
ch1_1_evap_v6 0
ch1_1_evap_v6_y 1
ch1_1_evap_u7 0
ch1_1_evap_u7_y 0
ch1_1_evap_v7 0
ch1_1_evap_v7_y 0
ch1_1_evap_u8 0
ch1_1_evap_u8_y 0
ch1_1_evap_v8 0
ch1_1_evap_v8_y 0
ch1_1_evap_u9 0
ch1_1_evap_u9_y 0
ch1_1_evap_v9 0
ch1_1_evap_v9_y 0
ch1_1_evap_u10 0
ch1_1_evap_u10_y 0
ch1_1_evap_v10 0
ch1_1_evap_v10_y 0
ch1_1_evap_u11 0
ch1_1_evap_u11_y 0
ch1_1_evap_v11 0
ch1_1_evap_v11_y 0
ch1_2_evap_u0 0
ch1_2_evap_u0_y 0
ch1_2_evap_v0 0
ch1_2_evap_v0_y 0
ch1_2_evap_u1 0
ch1_2_evap_u1_y 0
ch1_2_evap_v1 0
ch1_2_evap_v1_y 0
ch1_2_evap_u2 0
ch1_2_evap_u2_y 0
ch1_2_evap_v2 0
ch1_2_evap_v2_y 0
ch1_2_evap_u3 0
ch1_2_evap_u3_y 0
ch1_2_evap_v3 0
ch1_2_evap_v3_y 0
ch1_2_evap_u4 0
ch1_2_evap_u4_y 0
ch1_2_evap_v4 0
ch1_2_evap_v4_y 0
ch1_2_evap_u5 0
ch1_2_evap_u5_y 0
ch1_2_evap_v5 0
ch1_2_evap_v5_y 0
ch1_2_evap_u6 0
ch1_2_evap_u6_y 0
ch1_2_evap_v6 0
ch1_2_evap_v6_y 0
ch1_2_evap_u7 0
ch1_2_evap_u7_y 0
ch1_2_evap_v7 0
ch1_2_evap_v7_y 0
ch1_2_evap_u8 0
ch1_2_evap_u8_y 0
ch1_2_evap_v8 0
ch1_2_evap_v8_y 0
ch1_2_evap_u9 0
ch1_2_evap_u9_y 0
ch1_2_evap_v9 0
ch1_2_evap_v9_y 0
ch1_2_evap_u10 0
ch1_2_evap_u10_y 0
ch1_2_evap_v10 0
ch1_2_evap_v10_y 0
ch1_2_evap_u11 0
ch1_2_evap_u11_y 0
ch1_2_evap_v11 0
ch1_2_evap_v11_y 0
ch1_3_evap_u0 0
ch1_3_evap_u0_y 0
ch1_3_evap_v0 0
ch1_3_evap_v0_y 0
ch1_3_evap_u1 0
ch1_3_evap_u1_y 0
ch1_3_evap_v1 0
ch1_3_evap_v1_y 0
ch1_3_evap_u2 0
ch1_3_evap_u2_y 0
ch1_3_evap_v2 0
ch1_3_evap_v2_y 0
ch1_3_evap_u3 0
ch1_3_evap_u3_y 0
ch1_3_evap_v3 0
ch1_3_evap_v3_y 0
ch1_3_evap_u4 0
ch1_3_evap_u4_y 0
ch1_3_evap_v4 0
ch1_3_evap_v4_y 0
ch1_3_evap_u5 0
ch1_3_evap_u5_y 0
ch1_3_evap_v5 0
ch1_3_evap_v5_y 0
ch1_3_evap_u6 0
ch1_3_evap_u6_y 0
ch1_3_evap_v6 0
ch1_3_evap_v6_y 0
ch1_3_evap_u7 0
ch1_3_evap_u7_y 0
ch1_3_evap_v7 0
ch1_3_evap_v7_y 0
ch1_3_evap_u8 0
ch1_3_evap_u8_y 0
ch1_3_evap_v8 0
ch1_3_evap_v8_y 0
ch1_3_evap_u9 0
ch1_3_evap_u9_y 0
ch1_3_evap_v9 0
ch1_3_evap_v9_y 0
ch1_3_evap_u10 0
ch1_3_evap_u10_y 0
ch1_3_evap_v10 0
ch1_3_evap_v10_y 0
ch1_3_evap_u11 0
ch1_3_evap_u11_y 0
ch1_3_evap_v11 0
ch1_3_evap_v11_y 0
ch1_4_evap_u0 0
ch1_4_evap_u0_y 0
ch1_4_evap_v0 0
ch1_4_evap_v0_y 0
ch1_4_evap_u1 0
ch1_4_evap_u1_y 0
ch1_4_evap_v1 0
ch1_4_evap_v1_y 0
ch1_4_evap_u2 0
ch1_4_evap_u2_y 0
ch1_4_evap_v2 0
ch1_4_evap_v2_y 0
ch1_4_evap_u3 0
ch1_4_evap_u3_y 0
ch1_4_evap_v3 0
ch1_4_evap_v3_y 0
ch1_4_evap_u4 0
ch1_4_evap_u4_y 0
ch1_4_evap_v4 0
ch1_4_evap_v4_y 0
ch1_4_evap_u5 0
ch1_4_evap_u5_y 0
ch1_4_evap_v5 0
ch1_4_evap_v5_y 0
ch1_4_evap_u6 0
ch1_4_evap_u6_y 0
ch1_4_evap_v6 0
ch1_4_evap_v6_y 0
ch1_4_evap_u7 0
ch1_4_evap_u7_y 0
ch1_4_evap_v7 0
ch1_4_evap_v7_y 0
ch1_4_evap_u8 0
ch1_4_evap_u8_y 0
ch1_4_evap_v8 0
ch1_4_evap_v8_y 0
ch1_4_evap_u9 0
ch1_4_evap_u9_y 0
ch1_4_evap_v9 0
ch1_4_evap_v9_y 0
ch1_4_evap_u10 0
ch1_4_evap_u10_y 0
ch1_4_evap_v10 0
ch1_4_evap_v10_y 0
ch1_4_evap_u11 0
ch1_4_evap_u11_y 0
ch1_4_evap_v11 0
ch1_4_evap_v11_y 0
ch2_1_evap_u0 0
ch2_1_evap_u0_y 0
ch2_1_evap_v0 0
ch2_1_evap_v0_y 0
ch2_1_evap_u1 0
ch2_1_evap_u1_y 0
ch2_1_evap_v1 0
ch2_1_evap_v1_y 0
ch2_1_evap_u2 0
ch2_1_evap_u2_y 0
ch2_1_evap_v2 0
ch2_1_evap_v2_y 0
ch2_1_evap_u3 0
ch2_1_evap_u3_y 0
ch2_1_evap_v3 0
ch2_1_evap_v3_y 0
ch2_1_evap_u4 0
ch2_1_evap_u4_y 0
ch2_1_evap_v4 0
ch2_1_evap_v4_y 0
ch2_1_evap_u5 0
ch2_1_evap_u5_y 0
ch2_1_evap_v5 0
ch2_1_evap_v5_y 0
ch2_1_evap_u6 0
ch2_1_evap_u6_y 0
ch2_1_evap_v6 6.9684726862145386e-04
ch2_1_evap_v6_y 1
ch2_1_evap_u7 0
ch2_1_evap_u7_y 0
ch2_1_evap_v7 0
ch2_1_evap_v7_y 0
ch2_1_evap_u8 0
ch2_1_evap_u8_y 0
ch2_1_evap_v8 0
ch2_1_evap_v8_y 0
ch2_1_evap_u9 0
ch2_1_evap_u9_y 0
ch2_1_evap_v9 0
ch2_1_evap_v9_y 0
ch2_1_evap_u10 1.6971677211053220e+00
ch2_1_evap_u10_y 1
ch2_1_evap_v10 0
ch2_1_evap_v10_y 0
ch2_1_evap_u11 0
ch2_1_evap_u11_y 0
ch2_1_evap_v11 0
ch2_1_evap_v11_y 0
ch2_2_evap_u0 0
ch2_2_evap_u0_y 0
ch2_2_evap_v0 0
ch2_2_evap_v0_y 0
ch2_2_evap_u1 0
ch2_2_evap_u1_y 0
ch2_2_evap_v1 0
ch2_2_evap_v1_y 0
ch2_2_evap_u2 0
ch2_2_evap_u2_y 0
ch2_2_evap_v2 0
ch2_2_evap_v2_y 0
ch2_2_evap_u3 0
ch2_2_evap_u3_y 0
ch2_2_evap_v3 0
ch2_2_evap_v3_y 0
ch2_2_evap_u4 0
ch2_2_evap_u4_y 0
ch2_2_evap_v4 0
ch2_2_evap_v4_y 0
ch2_2_evap_u5 0
ch2_2_evap_u5_y 0
ch2_2_evap_v5 0
ch2_2_evap_v5_y 0
ch2_2_evap_u6 0
ch2_2_evap_u6_y 0
ch2_2_evap_v6 0
ch2_2_evap_v6_y 0
ch2_2_evap_u7 0
ch2_2_evap_u7_y 0
ch2_2_evap_v7 0
ch2_2_evap_v7_y 0
ch2_2_evap_u8 0
ch2_2_evap_u8_y 0
ch2_2_evap_v8 0
ch2_2_evap_v8_y 0
ch2_2_evap_u9 0
ch2_2_evap_u9_y 0
ch2_2_evap_v9 0
ch2_2_evap_v9_y 0
ch2_2_evap_u10 0
ch2_2_evap_u10_y 0
ch2_2_evap_v10 0
ch2_2_evap_v10_y 0
ch2_2_evap_u11 0
ch2_2_evap_u11_y 0
ch2_2_evap_v11 0
ch2_2_evap_v11_y 0
ch2_3_evap_u0 0
ch2_3_evap_u0_y 0
ch2_3_evap_v0 0
ch2_3_evap_v0_y 0
ch2_3_evap_u1 0
ch2_3_evap_u1_y 0
ch2_3_evap_v1 0
ch2_3_evap_v1_y 0
ch2_3_evap_u2 0
ch2_3_evap_u2_y 0
ch2_3_evap_v2 0
ch2_3_evap_v2_y 0
ch2_3_evap_u3 0
ch2_3_evap_u3_y 0
ch2_3_evap_v3 0
ch2_3_evap_v3_y 0
ch2_3_evap_u4 0
ch2_3_evap_u4_y 0
ch2_3_evap_v4 0
ch2_3_evap_v4_y 0
ch2_3_evap_u5 0
ch2_3_evap_u5_y 0
ch2_3_evap_v5 0
ch2_3_evap_v5_y 0
ch2_3_evap_u6 0
ch2_3_evap_u6_y 0
ch2_3_evap_v6 0
ch2_3_evap_v6_y 0
ch2_3_evap_u7 0
ch2_3_evap_u7_y 0
ch2_3_evap_v7 0
ch2_3_evap_v7_y 0
ch2_3_evap_u8 0
ch2_3_evap_u8_y 0
ch2_3_evap_v8 0
ch2_3_evap_v8_y 0
ch2_3_evap_u9 0
ch2_3_evap_u9_y 0
ch2_3_evap_v9 0
ch2_3_evap_v9_y 0
ch2_3_evap_u10 0
ch2_3_evap_u10_y 0
ch2_3_evap_v10 0
ch2_3_evap_v10_y 0
ch2_3_evap_u11 0
ch2_3_evap_u11_y 0
ch2_3_evap_v11 0
ch2_3_evap_v11_y 0
ch2_4_evap_u0 0
ch2_4_evap_u0_y 0
ch2_4_evap_v0 0
ch2_4_evap_v0_y 0
ch2_4_evap_u1 0
ch2_4_evap_u1_y 0
ch2_4_evap_v1 0
ch2_4_evap_v1_y 0
ch2_4_evap_u2 0
ch2_4_evap_u2_y 0
ch2_4_evap_v2 0
ch2_4_evap_v2_y 0
ch2_4_evap_u3 0
ch2_4_evap_u3_y 0
ch2_4_evap_v3 0
ch2_4_evap_v3_y 0
ch2_4_evap_u4 0
ch2_4_evap_u4_y 0
ch2_4_evap_v4 0
ch2_4_evap_v4_y 0
ch2_4_evap_u5 0
ch2_4_evap_u5_y 0
ch2_4_evap_v5 0
ch2_4_evap_v5_y 0
ch2_4_evap_u6 0
ch2_4_evap_u6_y 0
ch2_4_evap_v6 0
ch2_4_evap_v6_y 0
ch2_4_evap_u7 0
ch2_4_evap_u7_y 0
ch2_4_evap_v7 0
ch2_4_evap_v7_y 0
ch2_4_evap_u8 0
ch2_4_evap_u8_y 0
ch2_4_evap_v8 0
ch2_4_evap_v8_y 0
ch2_4_evap_u9 0
ch2_4_evap_u9_y 0
ch2_4_evap_v9 0
ch2_4_evap_v9_y 0
ch2_4_evap_u10 0
ch2_4_evap_u10_y 0
ch2_4_evap_v10 0
ch2_4_evap_v10_y 0
ch2_4_evap_u11 0
ch2_4_evap_u11_y 0
ch2_4_evap_v11 0
ch2_4_evap_v11_y 0
ch3_1_evap_u0 0
ch3_1_evap_u0_y 0
ch3_1_evap_v0 0
ch3_1_evap_v0_y 0
ch3_1_evap_u1 0
ch3_1_evap_u1_y 0
ch3_1_evap_v1 0
ch3_1_evap_v1_y 0
ch3_1_evap_u2 2.2069259895041618e-13
ch3_1_evap_u2_y 0
ch3_1_evap_v2 0
ch3_1_evap_v2_y 0
ch3_1_evap_u3 0
ch3_1_evap_u3_y 0
ch3_1_evap_v3 0
ch3_1_evap_v3_y 0
ch3_1_evap_u4 0
ch3_1_evap_u4_y 0
ch3_1_evap_v4 0
ch3_1_evap_v4_y 0
ch3_1_evap_u5 0
ch3_1_evap_u5_y 0
ch3_1_evap_v5 0
ch3_1_evap_v5_y 0
ch3_1_evap_u6 0
ch3_1_evap_u6_y 0
ch3_1_evap_v6 0
ch3_1_evap_v6_y 0
ch3_1_evap_u7 0
ch3_1_evap_u7_y 0
ch3_1_evap_v7 0
ch3_1_evap_v7_y 0
ch3_1_evap_u8 0
ch3_1_evap_u8_y 0
ch3_1_evap_v8 2.2069259895041618e-13
ch3_1_evap_v8_y 0
ch3_1_evap_u9 0
ch3_1_evap_u9_y 0
ch3_1_evap_v9 0
ch3_1_evap_v9_y 0
ch3_1_evap_u10 0
ch3_1_evap_u10_y 0
ch3_1_evap_v10 0
ch3_1_evap_v10_y 0
ch3_1_evap_u11 0
ch3_1_evap_u11_y 0
ch3_1_evap_v11 0
ch3_1_evap_v11_y 0
ch3_2_evap_u0 0
ch3_2_evap_u0_y 0
ch3_2_evap_v0 0
ch3_2_evap_v0_y 0
ch3_2_evap_u1 0
ch3_2_evap_u1_y 0
ch3_2_evap_v1 0
ch3_2_evap_v1_y 0
ch3_2_evap_u2 0
ch3_2_evap_u2_y 0
ch3_2_evap_v2 0
ch3_2_evap_v2_y 0
ch3_2_evap_u3 0
ch3_2_evap_u3_y 0
ch3_2_evap_v3 0
ch3_2_evap_v3_y 0
ch3_2_evap_u4 0
ch3_2_evap_u4_y 0
ch3_2_evap_v4 0
ch3_2_evap_v4_y 0
ch3_2_evap_u5 0
ch3_2_evap_u5_y 0
ch3_2_evap_v5 0
ch3_2_evap_v5_y 0
ch3_2_evap_u6 0
ch3_2_evap_u6_y 0
ch3_2_evap_v6 0
ch3_2_evap_v6_y 0
ch3_2_evap_u7 0
ch3_2_evap_u7_y 0
ch3_2_evap_v7 0
ch3_2_evap_v7_y 0
ch3_2_evap_u8 0
ch3_2_evap_u8_y 0
ch3_2_evap_v8 0
ch3_2_evap_v8_y 0
ch3_2_evap_u9 0
ch3_2_evap_u9_y 0
ch3_2_evap_v9 0
ch3_2_evap_v9_y 0
ch3_2_evap_u10 0
ch3_2_evap_u10_y 0
ch3_2_evap_v10 0
ch3_2_evap_v10_y 0
ch3_2_evap_u11 0
ch3_2_evap_u11_y 0
ch3_2_evap_v11 0
ch3_2_evap_v11_y 0
ch3_3_evap_u0 0
ch3_3_evap_u0_y 0
ch3_3_evap_v0 0
ch3_3_evap_v0_y 0
ch3_3_evap_u1 0
ch3_3_evap_u1_y 0
ch3_3_evap_v1 0
ch3_3_evap_v1_y 0
ch3_3_evap_u2 0
ch3_3_evap_u2_y 0
ch3_3_evap_v2 0
ch3_3_evap_v2_y 0
ch3_3_evap_u3 0
ch3_3_evap_u3_y 0
ch3_3_evap_v3 0
ch3_3_evap_v3_y 0
ch3_3_evap_u4 0
ch3_3_evap_u4_y 0
ch3_3_evap_v4 0
ch3_3_evap_v4_y 0
ch3_3_evap_u5 0
ch3_3_evap_u5_y 0
ch3_3_evap_v5 0
ch3_3_evap_v5_y 0
ch3_3_evap_u6 0
ch3_3_evap_u6_y 0
ch3_3_evap_v6 0
ch3_3_evap_v6_y 0
ch3_3_evap_u7 0
ch3_3_evap_u7_y 0
ch3_3_evap_v7 0
ch3_3_evap_v7_y 0
ch3_3_evap_u8 0
ch3_3_evap_u8_y 0
ch3_3_evap_v8 0
ch3_3_evap_v8_y 0
ch3_3_evap_u9 0
ch3_3_evap_u9_y 0
ch3_3_evap_v9 0
ch3_3_evap_v9_y 0
ch3_3_evap_u10 0
ch3_3_evap_u10_y 0
ch3_3_evap_v10 0
ch3_3_evap_v10_y 0
ch3_3_evap_u11 0
ch3_3_evap_u11_y 0
ch3_3_evap_v11 0
ch3_3_evap_v11_y 0
ch3_4_evap_u0 0
ch3_4_evap_u0_y 0
ch3_4_evap_v0 0
ch3_4_evap_v0_y 0
ch3_4_evap_u1 0
ch3_4_evap_u1_y 0
ch3_4_evap_v1 0
ch3_4_evap_v1_y 0
ch3_4_evap_u2 0
ch3_4_evap_u2_y 0
ch3_4_evap_v2 0
ch3_4_evap_v2_y 0
ch3_4_evap_u3 0
ch3_4_evap_u3_y 0
ch3_4_evap_v3 0
ch3_4_evap_v3_y 0
ch3_4_evap_u4 0
ch3_4_evap_u4_y 0
ch3_4_evap_v4 0
ch3_4_evap_v4_y 0
ch3_4_evap_u5 0
ch3_4_evap_u5_y 0
ch3_4_evap_v5 0
ch3_4_evap_v5_y 0
ch3_4_evap_u6 0
ch3_4_evap_u6_y 0
ch3_4_evap_v6 0
ch3_4_evap_v6_y 0
ch3_4_evap_u7 0
ch3_4_evap_u7_y 0
ch3_4_evap_v7 0
ch3_4_evap_v7_y 0
ch3_4_evap_u8 0
ch3_4_evap_u8_y 0
ch3_4_evap_v8 0
ch3_4_evap_v8_y 0
ch3_4_evap_u9 0
ch3_4_evap_u9_y 0
ch3_4_evap_v9 0
ch3_4_evap_v9_y 0
ch3_4_evap_u10 0
ch3_4_evap_u10_y 0
ch3_4_evap_v10 0
ch3_4_evap_v10_y 0
ch3_4_evap_u11 0
ch3_4_evap_u11_y 0
ch3_4_evap_v11 0
ch3_4_evap_v11_y 0
cp_nwk_u0 0
cp_nwk_u0_y 0
cp_nwk_v0 0
cp_nwk_v0_y 0
cp_nwk_u1 0
cp_nwk_u1_y 0
cp_nwk_v1 0
cp_nwk_v1_y 0
cp_nwk_u2 4.0267100630462938e-01
cp_nwk_u2_y 1
cp_nwk_v2 0
cp_nwk_v2_y 0
cp_nwk_u3 0
cp_nwk_u3_y 0
cp_nwk_v3 0
cp_nwk_v3_y 0
cp_nwk_u4 0
cp_nwk_u4_y 0
cp_nwk_v4 0
cp_nwk_v4_y 0
cp_nwk_u5 0
cp_nwk_u5_y 0
cp_nwk_v5 0
cp_nwk_v5_y 0
cp_nwk_u6 0
cp_nwk_u6_y 0
cp_nwk_v6 0
cp_nwk_v6_y 0
cp_nwk_u7 0
cp_nwk_u7_y 0
cp_nwk_v7 2.8037902654060048e-01
cp_nwk_v7_y 1
cp_nwk_u8 0
cp_nwk_u8_y 0
cp_nwk_v8 0
cp_nwk_v8_y 0
cp_nwk_u9 0
cp_nwk_u9_y 0
cp_nwk_v9 0
cp_nwk_v9_y 0
cp_nwk_u10 0
cp_nwk_u10_y 0
cp_nwk_v10 0
cp_nwk_v10_y 0
cp_nwk_u11 0
cp_nwk_u11_y 0
cp_nwk_v11 0
cp_nwk_v11_y 0
gv2_ss_u0 3.2690211232060305e-02
gv2_ss_u0_y 1
gv2_ss_v0 0
gv2_ss_v0_y 0
gv2_ss_u1 0
gv2_ss_u1_y 0
gv2_ss_v1 0
gv2_ss_v1_y 0
gv2_ss_u2 0
gv2_ss_u2_y 0
gv2_ss_v2 0
gv2_ss_v2_y 0
gv2_ss_u3 0
gv2_ss_u3_y 0
gv2_ss_v3 0
gv2_ss_v3_y 0
gv2_ss_u4 0
gv2_ss_u4_y 0
gv2_ss_v4 0
gv2_ss_v4_y 0
gv2_ss_u5 0
gv2_ss_u5_y 0
gv2_ss_v5 0
gv2_ss_v5_y 0
gv2_ss_u6 0
gv2_ss_u6_y 0
gv2_ss_v6 3.2690211232060305e-02
gv2_ss_v6_y 1
gv2_ss_u7 0
gv2_ss_u7_y 0
gv2_ss_v7 0
gv2_ss_v7_y 0
gv2_ss_u8 0
gv2_ss_u8_y 0
gv2_ss_v8 0
gv2_ss_v8_y 0
gv2_ss_u9 0
gv2_ss_u9_y 0
gv2_ss_v9 0
gv2_ss_v9_y 0
gv2_ss_u10 0
gv2_ss_u10_y 0
gv2_ss_v10 0
gv2_ss_v10_y 0
gv2_ss_u11 0
gv2_ss_u11_y 0
gv2_ss_v11 0
gv2_ss_v11_y 0
hsb_ss_u0 0
hsb_ss_u0_y 0
hsb_ss_v0 0
hsb_ss_v0_y 0
hsb_ss_u1 0
hsb_ss_u1_y 0
hsb_ss_v1 0
hsb_ss_v1_y 0
hsb_ss_u2 4.1718984823021649e-01
hsb_ss_u2_y 1
hsb_ss_v2 0
hsb_ss_v2_y 0
hsb_ss_u3 0
hsb_ss_u3_y 0
hsb_ss_v3 0
hsb_ss_v3_y 0
hsb_ss_u4 0
hsb_ss_u4_y 0
hsb_ss_v4 0
hsb_ss_v4_y 0
hsb_ss_u5 0
hsb_ss_u5_y 0
hsb_ss_v5 0
hsb_ss_v5_y 0
hsb_ss_u6 0
hsb_ss_u6_y 0
hsb_ss_v6 0
hsb_ss_v6_y 1
hsb_ss_u7 0
hsb_ss_u7_y 0
hsb_ss_v7 0
hsb_ss_v7_y 0
hsb_ss_u8 0
hsb_ss_u8_y 0
hsb_ss_v8 0
hsb_ss_v8_y 0
hsb_ss_u9 0
hsb_ss_u9_y 0
hsb_ss_v9 0
hsb_ss_v9_y 0
hsb_ss_u10 0
hsb_ss_u10_y 0
hsb_ss_v10 0
hsb_ss_v10_y 0
hsb_ss_u11 0
hsb_ss_u11_y 0
hsb_ss_v11 0
hsb_ss_v11_y 0
pfa_ss_u0 0
pfa_ss_u0_y 0
pfa_ss_v0 0
pfa_ss_v0_y 0
pfa_ss_u1 0
pfa_ss_u1_y 0
pfa_ss_v1 0
pfa_ss_v1_y 0
pfa_ss_u2 4.1718984823021654e-01
pfa_ss_u2_y 1
pfa_ss_v2 0
pfa_ss_v2_y 0
pfa_ss_u3 0
pfa_ss_u3_y 0
pfa_ss_v3 0
pfa_ss_v3_y 0
pfa_ss_u4 0
pfa_ss_u4_y 0
pfa_ss_v4 0
pfa_ss_v4_y 0
pfa_ss_u5 0
pfa_ss_u5_y 0
pfa_ss_v5 0
pfa_ss_v5_y 0
pfa_ss_u6 0
pfa_ss_u6_y 0
pfa_ss_v6 0
pfa_ss_v6_y 1
pfa_ss_u7 0
pfa_ss_u7_y 0
pfa_ss_v7 0
pfa_ss_v7_y 0
pfa_ss_u8 0
pfa_ss_u8_y 0
pfa_ss_v8 0
pfa_ss_v8_y 0
pfa_ss_u9 0
pfa_ss_u9_y 0
pfa_ss_v9 0
pfa_ss_v9_y 0
pfa_ss_u10 0
pfa_ss_u10_y 0
pfa_ss_v10 0
pfa_ss_v10_y 0
pfa_ss_u11 0
pfa_ss_u11_y 0
pfa_ss_v11 0
pfa_ss_v11_y 0
ser_ss_u0 0
ser_ss_u0_y 0
ser_ss_v0 0
ser_ss_v0_y 0
ser_ss_u1 0
ser_ss_u1_y 0
ser_ss_v1 0
ser_ss_v1_y 0
ser_ss_u2 4.1718984823021654e-01
ser_ss_u2_y 1
ser_ss_v2 0
ser_ss_v2_y 0
ser_ss_u3 0
ser_ss_u3_y 0
ser_ss_v3 0
ser_ss_v3_y 0
ser_ss_u4 0
ser_ss_u4_y 0
ser_ss_v4 0
ser_ss_v4_y 0
ser_ss_u5 0
ser_ss_u5_y 0
ser_ss_v5 0
ser_ss_v5_y 0
ser_ss_u6 0
ser_ss_u6_y 0
ser_ss_v6 0
ser_ss_v6_y 1
ser_ss_u7 0
ser_ss_u7_y 0
ser_ss_v7 0
ser_ss_v7_y 0
ser_ss_u8 0
ser_ss_u8_y 0
ser_ss_v8 0
ser_ss_v8_y 0
ser_ss_u9 0
ser_ss_u9_y 0
ser_ss_v9 0
ser_ss_v9_y 0
ser_ss_u10 0
ser_ss_u10_y 0
ser_ss_v10 0
ser_ss_v10_y 0
ser_ss_u11 0
ser_ss_u11_y 0
ser_ss_v11 0
ser_ss_v11_y 0
ch_e_f_c_m_perc 1
ch_e_f_c_y 1
ch_evap_ret_t_in 1
ch_evap_ret_y 1
ch1_1_evap_y 1
ch1_2_evap_y 0
ch1_3_evap_y 0
ch1_4_evap_y 0
ch2_1_evap_y 1
ch2_2_evap_y 0
ch2_3_evap_y 0
ch2_4_evap_y 0
ch3_1_evap_y 0
ch3_2_evap_y 0
ch3_3_evap_y 0
ch3_4_evap_y 0
cp_nwk_y 1
gv2_ss_y 1
hsb_ss_y 1
pfa_ss_y 1
ser_ss_y 1
